cost: 1062.99
Route 1:           0    5   34    2   37   26   12    0
Route 2:           0    6    1   18   25   10   27   50   23   14    0
Route 3:           0    8   41   24    0
Route 4:           0   16   21    7   36    4    0
Route 5:           0   17   11   35   31    9   42   19    0
Route 6:           0   20    3   33    0
Route 7:           0   28   49   13   44   29   38    0
Route 8:           0   39   32   15   40   48   46    0
Route 9:           0   43   45   30   22   47    0
